
n_res = 8;
rcap = [28, 26, 30, 31, 1444, 1451, 1276, 1392];
rtype = [1, 1, 1, 1, 2, 2, 2, 2];
n_tasks = 100;
modes =  [{1, 2, 3}, {4, 5, 6}, {7, 8, 9}, {10, 11, 12}, {13, 14, 15}, {16, 17, 18}, {19, 20, 21}, {22, 23, 24}, {25, 26, 27}, {28, 29, 30}, {31, 32, 33}, {34, 35, 36}, {37, 38, 39}, {40, 41, 42}, {43, 44, 45}, {46, 47, 48}, {49, 50, 51}, {52, 53, 54}, {55, 56, 57}, {58, 59, 60}, {61, 62, 63}, {64, 65, 66}, {67, 68, 69}, {70, 71, 72}, {73, 74, 75}, {76, 77, 78}, {79, 80, 81}, {82, 83, 84}, {85, 86, 87}, {88, 89, 90}, {91, 92, 93}, {94, 95, 96}, {97, 98, 99}, {100, 101, 102}, {103, 104, 105}, {106, 107, 108}, {109, 110, 111}, {112, 113, 114}, {115, 116, 117}, {118, 119, 120}, {121, 122, 123}, {124, 125, 126}, {127, 128, 129}, {130, 131, 132}, {133, 134, 135}, {136, 137, 138}, {139, 140, 141}, {142, 143, 144}, {145, 146, 147}, {148, 149, 150}, {151, 152, 153}, {154, 155, 156}, {157, 158, 159}, {160, 161, 162}, {163, 164, 165}, {166, 167, 168}, {169, 170, 171}, {172, 173, 174}, {175, 176, 177}, {178, 179, 180}, {181, 182, 183}, {184, 185, 186}, {187, 188, 189}, {190, 191, 192}, {193, 194, 195}, {196, 197, 198}, {199, 200, 201}, {202, 203, 204}, {205, 206, 207}, {208, 209, 210}, {211, 212, 213}, {214, 215, 216}, {217, 218, 219}, {220, 221, 222}, {223, 224, 225}, {226, 227, 228}, {229, 230, 231}, {232, 233, 234}, {235, 236, 237}, {238, 239, 240}, {241, 242, 243}, {244, 245, 246}, {247, 248, 249}, {250, 251, 252}, {253, 254, 255}, {256, 257, 258}, {259, 260, 261}, {262, 263, 264}, {265, 266, 267}, {268, 269, 270}, {271, 272, 273}, {274, 275, 276}, {277, 278, 279}, {280, 281, 282}, {283, 284, 285}, {286, 287, 288}, {289, 290, 291}, {292, 293, 294}, {295, 296, 297}, {298, 299, 300}];
succ =  [{100, 99, 75, 72, 70, 69, 68, 63, 62, 57, 56, 48, 43, 42, 33, 30, 24}, {100, 73, 72, 70, 68, 65, 58, 57, 53, 52, 49, 48, 46, 33, 32, 28}, {99, 96, 94, 93, 75, 74, 72, 70, 66, 65, 61, 57, 56, 55, 54, 52, 47, 46, 43, 41, 33}, {100, 72, 70, 68, 62, 60, 58, 57, 50, 48, 46, 42, 41, 26, 24}, {100, 99, 98, 97, 94, 91, 88, 75, 72, 71, 70, 65, 61, 60, 57, 56, 55, 52, 50, 46, 41, 39}, {99, 98, 97, 95, 91, 75, 72, 68, 67, 66, 65, 64, 62, 56, 54, 49, 48, 46, 43, 41, 26}, {97, 96, 72, 65, 63, 62, 60, 57, 52, 47, 46, 41, 28}, {99, 98, 97, 75, 68, 60, 48, 46, 44, 41, 39, 36, 35, 26}, {96, 92, 73, 69, 65, 59, 56, 52, 47, 33, 28}, {100, 98, 97, 93, 73, 72, 68, 67, 66, 65, 57, 49, 46, 41, 40}, {100, 99, 98, 97, 93, 90, 88, 84, 72, 70, 68, 67, 65, 60, 58, 56, 54, 53, 50, 45}, {99, 96, 93, 90, 87, 74, 72, 67, 66, 63, 58, 57, 47, 33}, {99, 97, 91, 88, 72, 70, 69, 68, 60, 56, 43, 42, 30}, {100, 95, 91, 90, 88, 71, 70, 68, 67, 66, 65, 61, 60, 58, 56, 55, 54, 53, 46}, {100, 99, 98, 97, 94, 91, 74, 72, 71, 68, 66, 65, 48, 30}, {100, 98, 95, 88, 87, 84, 72, 70, 68, 67, 65, 56, 54, 53, 43, 33}, {96, 95, 94, 92, 74, 72, 69, 67, 65, 61, 59, 55, 54, 33}, {99, 95, 93, 91, 89, 87, 83, 74, 70, 65, 58, 52, 47, 43}, {99, 98, 97, 91, 87, 75, 68, 59, 58, 56, 50, 48, 35}, {98, 93, 92, 84, 71, 70, 65, 50, 48, 41, 33}, {97, 96, 94, 91, 89, 85, 82, 71, 68, 67, 56, 49, 43, 41}, {98, 92, 88, 84, 82, 73, 71, 70, 68, 65, 53, 46, 42}, {99, 95, 86, 82, 81, 69, 68, 65, 60, 54, 53, 44}, {98, 95, 91, 90, 86, 85, 83, 82, 71, 67, 65, 61, 49}, {95, 92, 87, 70, 69, 67, 53, 33}, {94, 93, 89, 88, 82, 81, 73, 71, 69, 55, 53}, {98, 97, 93, 92, 91, 88, 85, 84, 81, 79, 77, 70, 68, 65, 56}, {99, 98, 95, 93, 91, 80, 78, 71, 66, 55, 54}, {98, 94, 92, 91, 90, 88, 87, 83, 81, 54, 46}, {96, 93, 92, 84, 82, 78, 67, 54, 41}, {96, 95, 90, 89, 88, 86, 81, 79, 78, 55, 53}, {96, 93, 90, 88, 86, 85, 81, 80, 77, 76, 74, 66}, {97, 91, 86, 85, 83, 82, 81, 80, 77, 60}, {93, 87, 86, 83, 82, 80, 70, 65, 60}, {94, 92, 90, 86, 84, 83, 80, 76, 69, 67}, {92, 90, 89, 87, 83, 81, 80, 78, 71, 70}, {99, 94, 92, 89, 85, 80, 78, 76, 67}, {100, 85, 84, 81, 80, 77, 76, 66}, {93, 90, 84, 66, 54}, {94, 91, 90, 88, 82, 80, 79, 78, 77}, {90, 87, 81, 79, 53}, {95, 90, 89, 86, 83, 76, 67}, {92, 90, 81, 79, 78, 76}, {92, 91, 84, 80, 79, 78}, {91, 89, 87, 83, 82, 79}, {89, 86, 85, 77, 69}, {100, 88, 84, 81, 68}, {96, 88, 82, 77, 76}, {88, 87, 84, 77, 76}, {96, 79, 78, 77, 76}, {98, 82, 79, 78, 76}, {85, 78, 76, 67}, {83, 80, 77, 76}, {85, 79, 77, 76}, {87, 84, 83, 77}, {86, 80, 78, 76}, {95, 92, 78, 77}, {94, 86, 82, 77}, {93, 88, 86, 77}, {89, 79, 76}, {81, 80, 76}, {94, 93, 77}, {84, 78, 76}, {84, 82, 79}, {78, 76}, {82, 79}, {81}, {80}, {78}, {76}, {79}, {82}, {85}, {78}, {77}, {}, {}, {}, {}, {}, {}, {}, {}, {}, {}, {}, {}, {}, {}, {}, {}, {}, {}, {}, {}, {}, {}, {}, {}, {}];
n_opt = 300;
dur = [6, 23, 25, 17, 20, 30, 2, 13, 14, 6, 7, 23, 11, 24, 25, 10, 12, 18, 11, 16, 18, 12, 17, 24, 2, 10, 13, 11, 24, 28, 10, 20, 29, 2, 20, 23, 9, 28, 29, 1, 8, 9, 4, 14, 17, 9, 14, 29, 1, 2, 4, 6, 10, 15, 9, 10, 23, 8, 9, 25, 16, 17, 27, 2, 15, 29, 1, 12, 21, 3, 4, 6, 8, 17, 18, 15, 26, 29, 5, 8, 17, 13, 19, 20, 1, 9, 20, 15, 17, 24, 17, 19, 26, 4, 10, 14, 9, 12, 28, 4, 22, 23, 4, 5, 18, 6, 29, 30, 12, 22, 23, 12, 23, 25, 5, 6, 10, 23, 28, 30, 8, 16, 24, 5, 24, 28, 5, 11, 12, 4, 20, 29, 8, 15, 20, 9, 15, 16, 2, 10, 22, 7, 8, 27, 1, 6, 23, 7, 20, 24, 5, 9, 28, 11, 16, 21, 9, 13, 29, 5, 22, 30, 16, 17, 29, 2, 6, 28, 6, 10, 21, 3, 10, 29, 9, 19, 24, 2, 3, 8, 11, 14, 21, 3, 15, 18, 1, 19, 25, 7, 10, 24, 1, 2, 26, 12, 20, 29, 13, 21, 22, 9, 23, 24, 9, 27, 29, 18, 19, 28, 20, 25, 26, 27, 28, 29, 5, 11, 16, 6, 15, 16, 19, 24, 28, 2, 14, 16, 1, 8, 9, 10, 25, 29, 3, 19, 30, 1, 22, 26, 20, 21, 22, 18, 25, 28, 4, 11, 27, 16, 21, 28, 1, 16, 27, 13, 18, 28, 3, 14, 17, 12, 17, 26, 8, 19, 20, 13, 21, 26, 6, 16, 29, 10, 13, 22, 4, 5, 30, 6, 9, 13, 14, 20, 25, 3, 4, 8, 1, 2, 20, 7, 16, 25, 9, 10, 28, 4, 9, 30];
rreq = [|3, 2, 2, 3, 2, 2, 2, 2, 2, 5, 3, 3, 3, 3, 2, 1, 1, 1, 4, 4, 4, 5, 2, 1, 5, 3, 1, 3, 2, 2, 3, 3, 3, 3, 3, 3, 3, 3, 2, 3, 2, 1, 4, 4, 3, 2, 1, 1, 4, 3, 2, 4, 3, 3, 4, 4, 4, 3, 1, 1, 4, 3, 2, 3, 3, 2, 1, 1, 1, 4, 3, 3, 5, 3, 3, 5, 2, 1, 2, 2, 2, 3, 3, 3, 1, 1, 1, 4, 4, 4, 4, 4, 4, 5, 4, 4, 2, 2, 2, 2, 1, 1, 2, 2, 2, 3, 2, 1, 4, 3, 2, 4, 3, 3, 2, 2, 1, 3, 3, 3, 4, 2, 1, 5, 3, 3, 4, 2, 2, 4, 4, 4, 2, 1, 1, 3, 2, 1, 2, 2, 1, 4, 4, 4, 1, 1, 1, 5, 2, 2, 3, 2, 1, 3, 3, 2, 4, 3, 2, 4, 3, 3, 5, 3, 2, 5, 4, 4, 5, 3, 3, 5, 4, 3, 1, 1, 1, 4, 3, 2, 4, 3, 2, 4, 2, 1, 1, 1, 1, 4, 3, 3, 3, 2, 2, 5, 4, 2, 3, 2, 2, 1, 1, 1, 2, 1, 1, 2, 2, 1, 3, 1, 1, 4, 4, 3, 5, 2, 1, 4, 2, 2, 4, 4, 3, 2, 1, 1, 4, 3, 3, 1, 1, 1, 2, 2, 2, 4, 2, 2, 5, 3, 3, 4, 2, 2, 4, 4, 4, 5, 5, 5, 2, 1, 1, 4, 4, 4, 2, 1, 1, 5, 3, 1, 3, 2, 1, 1, 1, 1, 4, 4, 4, 4, 2, 1, 3, 2, 2, 3, 3, 2, 4, 2, 2, 1, 1, 1, 3, 3, 3, 3, 2, 2, 2, 2, 2, 3, 2, 2
 |2, 2, 2, 2, 2, 2, 1, 1, 1, 2, 2, 2, 4, 4, 4, 4, 2, 2, 2, 1, 1, 2, 2, 2, 3, 3, 1, 3, 1, 1, 3, 3, 2, 4, 3, 2, 1, 1, 1, 3, 2, 2, 2, 1, 1, 2, 2, 1, 4, 3, 3, 2, 2, 2, 3, 3, 1, 4, 3, 3, 4, 4, 4, 4, 3, 2, 5, 5, 5, 3, 3, 3, 4, 4, 4, 2, 1, 1, 3, 2, 2, 3, 3, 3, 4, 3, 3, 4, 2, 2, 1, 1, 1, 3, 2, 1, 2, 2, 2, 4, 3, 2, 1, 1, 1, 4, 4, 4, 2, 2, 1, 4, 3, 1, 1, 1, 1, 2, 2, 2, 5, 4, 3, 1, 1, 1, 1, 1, 1, 5, 4, 4, 5, 5, 5, 5, 5, 5, 3, 3, 2, 3, 2, 1, 4, 4, 4, 4, 3, 3, 4, 3, 3, 4, 4, 4, 4, 2, 2, 4, 4, 4, 3, 3, 2, 3, 3, 3, 3, 3, 1, 4, 3, 3, 2, 2, 2, 4, 4, 4, 1, 1, 1, 1, 1, 1, 3, 2, 2, 3, 2, 2, 4, 4, 2, 2, 1, 1, 5, 4, 4, 4, 3, 3, 4, 4, 4, 2, 2, 2, 2, 2, 1, 4, 3, 3, 4, 4, 4, 4, 3, 1, 4, 4, 3, 4, 3, 3, 4, 3, 3, 3, 2, 2, 4, 4, 4, 3, 3, 3, 1, 1, 1, 4, 2, 2, 3, 3, 1, 3, 2, 1, 4, 3, 3, 3, 2, 2, 4, 2, 2, 5, 4, 4, 5, 3, 3, 3, 2, 2, 5, 4, 4, 3, 3, 1, 4, 3, 2, 3, 2, 1, 3, 3, 3, 4, 4, 4, 4, 3, 2, 2, 2, 2, 3, 1, 1, 5, 4, 3
 |4, 2, 2, 3, 3, 3, 3, 2, 2, 3, 3, 3, 3, 2, 1, 2, 1, 1, 4, 3, 2, 3, 3, 3, 2, 2, 2, 3, 2, 2, 5, 3, 1, 2, 1, 1, 4, 4, 4, 4, 3, 2, 3, 3, 3, 2, 1, 1, 3, 2, 2, 4, 3, 2, 4, 4, 4, 2, 2, 2, 5, 4, 3, 4, 2, 2, 4, 3, 2, 1, 1, 1, 4, 3, 2, 3, 3, 3, 5, 5, 5, 4, 4, 3, 4, 3, 3, 3, 2, 1, 4, 3, 3, 4, 2, 2, 3, 3, 3, 5, 2, 2, 3, 3, 3, 4, 4, 2, 2, 1, 1, 5, 4, 4, 3, 3, 2, 4, 2, 2, 4, 3, 2, 4, 4, 4, 2, 1, 1, 4, 4, 4, 4, 2, 2, 3, 1, 1, 5, 3, 3, 5, 4, 2, 5, 4, 2, 4, 2, 2, 3, 3, 2, 5, 5, 5, 1, 1, 1, 4, 4, 4, 4, 3, 2, 3, 2, 1, 4, 4, 4, 4, 3, 3, 2, 1, 1, 2, 2, 2, 4, 3, 2, 1, 1, 1, 2, 2, 2, 4, 2, 2, 5, 3, 2, 5, 3, 2, 4, 2, 1, 1, 1, 1, 4, 2, 1, 3, 2, 1, 4, 3, 2, 4, 4, 4, 4, 2, 1, 2, 2, 2, 3, 2, 2, 1, 1, 1, 3, 2, 1, 5, 4, 4, 2, 1, 1, 4, 4, 3, 3, 2, 1, 4, 3, 3, 2, 2, 2, 2, 2, 2, 5, 4, 4, 4, 4, 2, 2, 1, 1, 4, 3, 2, 1, 1, 1, 4, 4, 2, 3, 3, 2, 2, 1, 1, 3, 2, 2, 4, 4, 3, 4, 4, 4, 1, 1, 1, 1, 1, 1, 5, 5, 5, 3, 3, 2, 5, 3, 2
 |3, 3, 3, 3, 2, 2, 5, 2, 1, 5, 4, 4, 2, 2, 2, 3, 3, 1, 5, 3, 3, 4, 2, 1, 3, 3, 2, 4, 4, 4, 3, 2, 2, 5, 4, 4, 3, 3, 3, 2, 2, 2, 1, 1, 1, 5, 4, 4, 2, 2, 2, 3, 3, 3, 3, 2, 1, 4, 4, 4, 3, 1, 1, 5, 4, 3, 5, 3, 3, 3, 2, 2, 1, 1, 1, 3, 3, 3, 5, 4, 3, 1, 1, 1, 3, 2, 2, 5, 5, 5, 4, 3, 1, 3, 1, 1, 4, 2, 1, 5, 3, 3, 3, 3, 3, 4, 2, 2, 3, 3, 3, 2, 1, 1, 3, 3, 3, 4, 2, 2, 5, 4, 4, 3, 3, 2, 3, 2, 1, 5, 4, 2, 2, 1, 1, 2, 2, 2, 2, 2, 1, 4, 3, 2, 4, 4, 3, 5, 3, 3, 5, 4, 4, 2, 2, 2, 2, 1, 1, 2, 2, 2, 5, 4, 4, 4, 3, 2, 3, 3, 3, 2, 2, 2, 1, 1, 1, 3, 3, 3, 5, 3, 2, 2, 1, 1, 5, 3, 1, 1, 1, 1, 5, 4, 3, 3, 1, 1, 4, 3, 2, 3, 3, 2, 4, 4, 4, 1, 1, 1, 4, 4, 3, 5, 3, 2, 1, 1, 1, 5, 3, 3, 4, 2, 1, 3, 2, 2, 3, 3, 3, 5, 4, 3, 5, 4, 2, 4, 2, 2, 4, 3, 3, 2, 1, 1, 4, 4, 4, 3, 3, 2, 2, 2, 1, 2, 2, 2, 2, 2, 2, 1, 1, 1, 3, 3, 3, 4, 3, 2, 1, 1, 1, 5, 4, 2, 4, 3, 3, 1, 1, 1, 5, 4, 4, 3, 2, 1, 3, 3, 3, 4, 4, 4, 3, 3, 3, 4, 3, 1
 |22, 14, 5, 18, 14, 12, 3, 3, 3, 22, 18, 18, 28, 23, 17, 27, 15, 12, 24, 20, 20, 23, 22, 20, 20, 13, 6, 29, 18, 17, 13, 8, 8, 14, 13, 13, 17, 15, 15, 27, 25, 24, 12, 9, 1, 30, 29, 28, 24, 16, 15, 19, 16, 4, 14, 10, 3, 17, 16, 14, 19, 15, 11, 16, 9, 2, 16, 12, 10, 20, 19, 6, 20, 19, 17, 5, 3, 1, 26, 18, 17, 12, 6, 4, 30, 27, 26, 27, 21, 7, 30, 30, 30, 10, 9, 8, 12, 12, 12, 14, 10, 7, 28, 27, 26, 21, 13, 7, 19, 14, 9, 25, 21, 21, 20, 14, 4, 28, 25, 20, 25, 23, 21, 23, 14, 10, 16, 15, 15, 27, 22, 16, 13, 11, 7, 19, 18, 17, 10, 9, 8, 22, 16, 14, 15, 13, 8, 22, 16, 10, 15, 13, 13, 25, 18, 15, 21, 16, 6, 22, 10, 3, 13, 12, 8, 2, 2, 2, 23, 23, 21, 9, 9, 8, 15, 13, 11, 22, 18, 11, 22, 20, 17, 20, 14, 4, 27, 26, 24, 18, 12, 4, 10, 8, 2, 27, 24, 20, 10, 7, 5, 26, 26, 25, 23, 19, 16, 14, 10, 9, 30, 29, 28, 12, 10, 5, 18, 17, 15, 20, 14, 11, 12, 7, 4, 23, 21, 16, 30, 29, 28, 8, 7, 6, 30, 28, 26, 18, 16, 11, 9, 8, 7, 20, 18, 18, 9, 8, 5, 13, 12, 11, 23, 17, 15, 26, 22, 16, 25, 21, 21, 28, 27, 25, 21, 19, 19, 30, 29, 28, 24, 19, 9, 18, 7, 1, 16, 16, 16, 29, 12, 10, 18, 17, 15, 17, 13, 12, 25, 23, 13, 22, 17, 10, 16, 16, 8, 24, 18, 10
 |19, 15, 7, 17, 17, 16, 7, 5, 4, 27, 26, 25, 11, 9, 8, 16, 9, 2, 30, 28, 27, 19, 12, 2, 18, 13, 9, 25, 25, 25, 22, 9, 5, 25, 17, 7, 24, 23, 22, 23, 19, 18, 11, 7, 6, 17, 15, 6, 23, 21, 20, 22, 22, 15, 22, 18, 15, 16, 11, 7, 21, 20, 19, 24, 17, 9, 24, 22, 22, 23, 17, 5, 27, 20, 12, 25, 25, 25, 6, 6, 2, 18, 16, 15, 27, 26, 26, 21, 20, 20, 7, 7, 7, 23, 22, 19, 2, 1, 1, 20, 12, 8, 27, 27, 27, 29, 18, 18, 22, 20, 19, 20, 14, 14, 23, 23, 21, 6, 4, 2, 19, 14, 11, 27, 19, 12, 27, 25, 24, 18, 14, 6, 25, 15, 10, 10, 9, 8, 9, 5, 4, 17, 17, 17, 30, 29, 29, 23, 20, 14, 19, 15, 10, 10, 7, 5, 10, 9, 9, 22, 16, 11, 24, 24, 22, 12, 6, 1, 21, 19, 16, 17, 16, 16, 23, 10, 8, 19, 15, 8, 21, 21, 21, 17, 12, 8, 7, 7, 7, 24, 17, 16, 22, 19, 9, 19, 16, 12, 9, 9, 9, 21, 15, 11, 17, 11, 2, 19, 13, 3, 7, 7, 7, 28, 14, 5, 20, 20, 17, 16, 12, 10, 23, 18, 15, 20, 17, 15, 12, 10, 10, 17, 13, 5, 4, 4, 4, 26, 18, 9, 10, 7, 7, 24, 20, 17, 23, 19, 13, 22, 22, 22, 21, 12, 6, 27, 27, 26, 14, 10, 4, 5, 4, 3, 19, 15, 11, 26, 23, 21, 14, 9, 8, 29, 27, 26, 16, 15, 11, 30, 25, 20, 27, 26, 26, 22, 20, 19, 20, 19, 18, 28, 25, 19, 30, 29, 29, 16, 12, 9
 |16, 15, 11, 22, 19, 12, 28, 19, 6, 1, 1, 1, 14, 12, 10, 18, 12, 8, 4, 3, 2, 16, 16, 16, 16, 14, 10, 17, 17, 17, 5, 5, 5, 19, 18, 14, 14, 8, 7, 6, 3, 2, 28, 25, 22, 20, 20, 18, 13, 8, 6, 23, 22, 21, 29, 29, 29, 27, 20, 15, 28, 26, 22, 13, 11, 11, 10, 9, 8, 22, 17, 13, 24, 19, 15, 15, 12, 8, 26, 25, 24, 24, 16, 14, 22, 16, 9, 14, 11, 3, 19, 16, 12, 25, 25, 24, 15, 14, 12, 21, 17, 7, 22, 21, 21, 14, 14, 13, 11, 8, 7, 24, 11, 6, 22, 20, 18, 23, 15, 14, 15, 13, 12, 10, 9, 8, 7, 5, 3, 18, 14, 5, 8, 5, 3, 23, 12, 9, 27, 14, 14, 29, 23, 14, 27, 16, 16, 15, 15, 10, 22, 22, 7, 28, 17, 13, 14, 10, 8, 15, 8, 1, 11, 9, 5, 5, 5, 3, 15, 15, 12, 20, 15, 7, 27, 22, 17, 3, 3, 2, 12, 10, 9, 19, 12, 9, 29, 28, 28, 20, 12, 12, 11, 9, 7, 16, 11, 11, 17, 17, 17, 13, 11, 11, 15, 13, 12, 29, 29, 28, 15, 12, 6, 11, 6, 3, 3, 3, 1, 19, 17, 13, 22, 13, 3, 17, 15, 14, 20, 15, 7, 15, 14, 13, 24, 22, 16, 7, 5, 4, 20, 18, 17, 24, 23, 22, 13, 12, 12, 13, 12, 11, 21, 20, 19, 12, 9, 6, 21, 13, 5, 18, 17, 13, 11, 8, 5, 26, 22, 21, 10, 8, 4, 21, 18, 17, 28, 21, 11, 28, 18, 2, 21, 16, 14, 19, 18, 17, 28, 12, 8, 22, 11, 6, 8, 7, 7, 10, 10, 6
 |16, 13, 8, 24, 19, 8, 20, 14, 2, 23, 16, 12, 18, 7, 5, 30, 27, 23, 23, 18, 15, 26, 23, 19, 24, 21, 17, 24, 24, 24, 12, 6, 3, 27, 26, 26, 29, 14, 2, 4, 3, 2, 5, 3, 1, 7, 5, 2, 17, 17, 14, 28, 27, 27, 24, 14, 12, 14, 11, 11, 25, 24, 23, 17, 15, 12, 25, 25, 24, 13, 11, 11, 5, 5, 5, 22, 17, 14, 12, 8, 7, 23, 22, 15, 26, 18, 14, 30, 29, 29, 18, 14, 12, 10, 6, 3, 17, 16, 16, 24, 16, 12, 16, 15, 10, 27, 13, 10, 17, 12, 10, 8, 8, 8, 21, 16, 9, 18, 18, 18, 26, 26, 25, 15, 15, 14, 25, 23, 23, 17, 17, 16, 20, 12, 5, 20, 10, 6, 15, 13, 2, 16, 15, 11, 25, 19, 19, 16, 15, 9, 30, 21, 14, 7, 5, 4, 23, 17, 12, 14, 13, 8, 3, 3, 2, 9, 7, 7, 20, 18, 14, 19, 16, 15, 25, 21, 10, 23, 16, 14, 14, 9, 8, 25, 25, 25, 23, 17, 15, 26, 26, 26, 7, 7, 7, 14, 12, 9, 18, 18, 16, 21, 19, 17, 23, 16, 15, 21, 15, 2, 10, 6, 5, 28, 28, 28, 30, 24, 20, 10, 8, 5, 26, 14, 11, 27, 17, 10, 23, 21, 15, 20, 19, 18, 20, 17, 10, 21, 16, 10, 13, 10, 7, 15, 13, 10, 24, 22, 21, 9, 8, 7, 16, 14, 10, 23, 22, 17, 13, 7, 4, 27, 16, 7, 22, 19, 17, 12, 12, 12, 30, 29, 28, 4, 3, 3, 28, 28, 28, 7, 7, 6, 5, 5, 5, 25, 17, 12, 25, 17, 11, 14, 11, 5, 18, 16, 16, 12, 9, 5|];